c 2 __LINUXTHREADS_OLD__
c 1 __UCLIBC_HAS_THREADS_NATIVE__
c 3 __UCLIBC_HAS_STDIO_BUFSIZ_NONE__
c 5 __UCLIBC_HAS_FLOATS__
c 6 __LINUXTHREADS_NEW__
c 4 __UCLIBC_HAS_THREADS__
p cnf 6 1
-5 1 2 3 -4 6 1
